benchmarks_vrp/CMT3/min_c/CMT3_5.vrp
NAME: CMT3_5
TYPE: CVRP
COMMENT: 826.14 - Cluster Nr.5
DIMENSION: 15
CAPACITY: 200
EDGE_WEIGHT_TYPE: EUC_2D
NODE_COORD_TYPE: TWOD_COORDS
NODE_COORD_SECTION: 
9 47 47
10 53 43
2 64 42
3 56 37
12 57 48
1 49 42
7 61 52
14 35 35
5 65 55
11 56 39
8 53 52
13 55 45
6 55 54
15 65 35
4 41 49
DEPOT_SECTION: 
14
-1
DEMAND_SECTION: 
1 13
13 13
12 23
4 10
2 9
15 3
11 36
5 14
10 14
14 0
6 26
9 13
7 3
3 6
8 11
EOF
