benchmarks_vrp/CMT3/min_c/CMT3_5.tour
NAME: CMT3_5 solution
TYPE: TOUR
TOUR_SECTION:
14 1 10 13 11 3 15 2 12 7 5 6 8 9 4 -1
-1
EOF